// Objective Function

MAX: 20 x1 + 15 x2 + 25 x3 - 6 y1p - 6 y1m - 3 y2m;



// Constraints

EmploymentGoal: 6 x1 + 4 x2 + 5 x3 - y1p + y1m = 50;

NextYearGoalForEarning: 8 x1 + 7 x2 + 5 x3 - y2p + y2m = 75;